<number of tasks>
50

<cycle time>
1000

<order strength>
0.202


<task times>
1 77
2 457
3 210
4 91
5 89
6 49
7 102
8 172
9 82
10 167
11 198
12 110
13 61
14 80
15 70
16 55
17 61
18 210
19 211
20 101
21 74
22 186
23 81
24 289
25 305
26 153
27 268
28 188
29 133
30 324
31 81
32 231
33 44
34 136
35 120
36 113
37 197
38 74
39 249
40 80
41 127
42 199
43 145
44 187
45 101
46 99
47 186
48 290
49 99
50 155

<precedence relations>
1,6
2,7
3,9
4,8
4,10
4,11
4,12
4,13
5,11
6,17
7,14
8,15
9,16
10,18
11,45
12,48
13,19
13,32
14,21
15,19
16,22
17,24
17,25
18,20
18,23
19,26
19,27
19,30
19,31
20,28
20,29
20,49
21,30
22,49
23,32
25,32
26,33
27,35
28,36
29,34
29,37
30,38
30,43
31,38
31,44
31,48
33,42
34,39
35,43
36,44
37,41
38,40
38,45
39,46
40,47
41,48
42,49
44,50

<end>
